(set-logic HORN)
(declare-datatypes ((Nat_0 0)) (((Z_0 ) (S_0 (unS_0 Nat_0)))))
(declare-fun diseqNat_0 (Nat_0 Nat_0) Bool)
(declare-fun unS_1 (Nat_0 Nat_0) Bool)
(declare-fun isZ_0 (Nat_0) Bool)
(declare-fun isS_0 (Nat_0) Bool)
(assert (forall ((x_74 Nat_0) (x_73 Nat_0))
	(=> (= x_74 (S_0 x_73))
	    (unS_1 x_73 x_74))))
(assert (isZ_0 Z_0))
(assert (forall ((x_75 Nat_0))
	(isS_0 (S_0 x_75))))
(assert (forall ((x_76 Nat_0))
	(diseqNat_0 Z_0 (S_0 x_76))))
(assert (forall ((x_77 Nat_0))
	(diseqNat_0 (S_0 x_77) Z_0)))
(assert (forall ((x_78 Nat_0) (x_79 Nat_0))
	(=> (diseqNat_0 x_78 x_79)
	    (diseqNat_0 (S_0 x_78) (S_0 x_79)))))
(declare-fun add_0 (Nat_0 Nat_0 Nat_0) Bool)
(declare-fun minus_0 (Nat_0 Nat_0 Nat_0) Bool)
(declare-fun le_0 (Nat_0 Nat_0) Bool)
(declare-fun ge_0 (Nat_0 Nat_0) Bool)
(declare-fun lt_0 (Nat_0 Nat_0) Bool)
(declare-fun gt_0 (Nat_0 Nat_0) Bool)
(declare-fun mult_0 (Nat_0 Nat_0 Nat_0) Bool)
(declare-fun div_0 (Nat_0 Nat_0 Nat_0) Bool)
(declare-fun mod_0 (Nat_0 Nat_0 Nat_0) Bool)
(assert (forall ((y_10 Nat_0))
	(add_0 y_10 Z_0 y_10)))
(assert (forall ((x_64 Nat_0) (y_10 Nat_0) (r_0 Nat_0))
	(=> (add_0 r_0 x_64 y_10)
	    (add_0 (S_0 r_0) (S_0 x_64) y_10))))
(assert (forall ((y_10 Nat_0))
	(minus_0 Z_0 Z_0 y_10)))
(assert (forall ((x_64 Nat_0) (y_10 Nat_0) (r_0 Nat_0))
	(=> (minus_0 r_0 x_64 y_10)
	    (minus_0 (S_0 r_0) (S_0 x_64) y_10))))
(assert (forall ((y_10 Nat_0))
	(le_0 Z_0 y_10)))
(assert (forall ((x_64 Nat_0) (y_10 Nat_0))
	(=> (le_0 x_64 y_10)
	    (le_0 (S_0 x_64) (S_0 y_10)))))
(assert (forall ((y_10 Nat_0))
	(ge_0 y_10 Z_0)))
(assert (forall ((x_64 Nat_0) (y_10 Nat_0))
	(=> (ge_0 x_64 y_10)
	    (ge_0 (S_0 x_64) (S_0 y_10)))))
(assert (forall ((y_10 Nat_0))
	(lt_0 Z_0 (S_0 y_10))))
(assert (forall ((x_64 Nat_0) (y_10 Nat_0))
	(=> (lt_0 x_64 y_10)
	    (lt_0 (S_0 x_64) (S_0 y_10)))))
(assert (forall ((y_10 Nat_0))
	(gt_0 (S_0 y_10) Z_0)))
(assert (forall ((x_64 Nat_0) (y_10 Nat_0))
	(=> (gt_0 x_64 y_10)
	    (gt_0 (S_0 x_64) (S_0 y_10)))))
(assert (forall ((y_10 Nat_0))
	(mult_0 Z_0 Z_0 y_10)))
(assert (forall ((x_64 Nat_0) (y_10 Nat_0) (r_0 Nat_0) (z_5 Nat_0))
	(=>	(and (mult_0 r_0 x_64 y_10)
			(add_0 z_5 r_0 y_10))
		(mult_0 z_5 (S_0 x_64) y_10))))
(assert (forall ((x_64 Nat_0) (y_10 Nat_0))
	(=> (lt_0 x_64 y_10)
	    (div_0 Z_0 x_64 y_10))))
(assert (forall ((x_64 Nat_0) (y_10 Nat_0) (r_0 Nat_0) (z_5 Nat_0))
	(=>	(and (ge_0 x_64 y_10)
			(minus_0 z_5 x_64 y_10)
			(div_0 r_0 z_5 y_10))
		(div_0 (S_0 r_0) x_64 y_10))))
(assert (forall ((x_64 Nat_0) (y_10 Nat_0))
	(=> (lt_0 x_64 y_10)
	    (mod_0 x_64 x_64 y_10))))
(assert (forall ((x_64 Nat_0) (y_10 Nat_0) (r_0 Nat_0) (z_5 Nat_0))
	(=>	(and (ge_0 x_64 y_10)
			(minus_0 z_5 x_64 y_10)
			(mod_0 r_0 z_5 y_10))
		(mod_0 r_0 x_64 y_10))))
(declare-datatypes ((list_0 0)) (((nil_0 ) (cons_0 (head_0 Nat_0) (tail_0 list_0)))))
(declare-fun diseqlist_0 (list_0 list_0) Bool)
(declare-fun head_1 (Nat_0 list_0) Bool)
(declare-fun tail_1 (list_0 list_0) Bool)
(declare-fun isnil_0 (list_0) Bool)
(declare-fun iscons_0 (list_0) Bool)
(assert (forall ((x_83 list_0) (x_81 Nat_0) (x_82 list_0))
	(=> (= x_83 (cons_0 x_81 x_82))
	    (head_1 x_81 x_83))))
(assert (forall ((x_83 list_0) (x_81 Nat_0) (x_82 list_0))
	(=> (= x_83 (cons_0 x_81 x_82))
	    (tail_1 x_82 x_83))))
(assert (isnil_0 nil_0))
(assert (forall ((x_84 Nat_0) (x_85 list_0))
	(iscons_0 (cons_0 x_84 x_85))))
(assert (forall ((x_86 Nat_0) (x_87 list_0))
	(diseqlist_0 nil_0 (cons_0 x_86 x_87))))
(assert (forall ((x_88 Nat_0) (x_89 list_0))
	(diseqlist_0 (cons_0 x_88 x_89) nil_0)))
(assert (forall ((x_90 Nat_0) (x_91 list_0) (x_92 Nat_0) (x_93 list_0))
	(=> (diseqNat_0 x_90 x_92)
	    (diseqlist_0 (cons_0 x_90 x_91) (cons_0 x_92 x_93)))))
(assert (forall ((x_90 Nat_0) (x_91 list_0) (x_92 Nat_0) (x_93 list_0))
	(=> (diseqlist_0 x_91 x_93)
	    (diseqlist_0 (cons_0 x_90 x_91) (cons_0 x_92 x_93)))))
(declare-datatypes ((pair_0 0)) (((pair_1 (projpair_0 list_0) (projpair_1 list_0)))))
(declare-fun diseqpair_0 (pair_0 pair_0) Bool)
(declare-fun projpair_2 (list_0 pair_0) Bool)
(declare-fun projpair_3 (list_0 pair_0) Bool)
(declare-fun ispair_0 (pair_0) Bool)
(assert (forall ((x_96 pair_0) (x_94 list_0) (x_95 list_0))
	(=> (= x_96 (pair_1 x_94 x_95))
	    (projpair_2 x_94 x_96))))
(assert (forall ((x_96 pair_0) (x_94 list_0) (x_95 list_0))
	(=> (= x_96 (pair_1 x_94 x_95))
	    (projpair_3 x_95 x_96))))
(assert (forall ((x_97 list_0) (x_98 list_0))
	(ispair_0 (pair_1 x_97 x_98))))
(assert (forall ((x_99 list_0) (x_100 list_0) (x_101 list_0) (x_102 list_0))
	(=> (diseqlist_0 x_99 x_101)
	    (diseqpair_0 (pair_1 x_99 x_100) (pair_1 x_101 x_102)))))
(assert (forall ((x_99 list_0) (x_100 list_0) (x_101 list_0) (x_102 list_0))
	(=> (diseqlist_0 x_100 x_102)
	    (diseqpair_0 (pair_1 x_99 x_100) (pair_1 x_101 x_102)))))
(declare-fun take_0 (list_0 Nat_0 list_0) Bool)
(assert (forall ((x_0 Nat_0) (y_0 list_0) (x_15 list_0))
	(=>	(and (= x_15 nil_0)
			(le_0 x_0 Z_0))
		(take_0 x_15 x_0 y_0))))
(assert (forall ((x_0 Nat_0) (y_0 list_0) (z_0 Nat_0) (xs_0 list_0) (x_16 list_0) (x_17 list_0) (x_65 Nat_0))
	(=>	(and (= x_16 (cons_0 z_0 x_17))
			(take_0 x_17 x_65 xs_0)
			(gt_0 x_0 Z_0)
			(= y_0 (cons_0 z_0 xs_0))
			(minus_0 x_65 x_0 (S_0 Z_0)))
		(take_0 x_16 x_0 y_0))))
(assert (forall ((x_0 Nat_0) (y_0 list_0) (x_18 list_0))
	(=>	(and (= x_18 nil_0)
			(le_0 x_0 Z_0))
		(take_0 x_18 x_0 y_0))))
(assert (forall ((x_0 Nat_0) (y_0 list_0) (x_19 list_0))
	(=>	(and (= x_19 nil_0)
			(gt_0 x_0 Z_0)
			(= y_0 nil_0))
		(take_0 x_19 x_0 y_0))))
(declare-fun sort_0 (list_0 Nat_0 Nat_0) Bool)
(assert (forall ((x_1 Nat_0) (y_1 Nat_0) (x_20 list_0))
	(=>	(and (= x_20 (cons_0 x_1 (cons_0 y_1 nil_0)))
			(le_0 x_1 y_1))
		(sort_0 x_20 x_1 y_1))))
(assert (forall ((x_1 Nat_0) (y_1 Nat_0) (x_21 list_0))
	(=>	(and (= x_21 (cons_0 y_1 (cons_0 x_1 nil_0)))
			(gt_0 x_1 y_1))
		(sort_0 x_21 x_1 y_1))))
(declare-fun length_0 (Nat_0 list_0) Bool)
(assert (forall ((x_2 list_0) (y_2 Nat_0) (l_0 list_0) (x_22 Nat_0) (x_23 Nat_0) (x_66 Nat_0))
	(=>	(and (= x_22 x_66)
			(length_0 x_23 l_0)
			(= x_2 (cons_0 y_2 l_0))
			(add_0 x_66 (S_0 Z_0) x_23))
		(length_0 x_22 x_2))))
(assert (forall ((x_2 list_0) (x_24 Nat_0))
	(=>	(and (= x_24 Z_0)
			(= x_2 nil_0))
		(length_0 x_24 x_2))))
(declare-fun insert_0 (list_0 Nat_0 list_0) Bool)
(assert (forall ((x_3 Nat_0) (y_3 list_0) (z_1 Nat_0) (xs_1 list_0) (x_25 list_0))
	(=>	(and (= x_25 (cons_0 x_3 (cons_0 z_1 xs_1)))
			(= y_3 (cons_0 z_1 xs_1))
			(le_0 x_3 z_1))
		(insert_0 x_25 x_3 y_3))))
(assert (forall ((x_3 Nat_0) (y_3 list_0) (z_1 Nat_0) (xs_1 list_0) (x_26 list_0) (x_27 list_0))
	(=>	(and (= x_26 (cons_0 z_1 x_27))
			(insert_0 x_27 x_3 xs_1)
			(= y_3 (cons_0 z_1 xs_1))
			(gt_0 x_3 z_1))
		(insert_0 x_26 x_3 y_3))))
(assert (forall ((x_3 Nat_0) (y_3 list_0) (x_28 list_0))
	(=>	(and (= x_28 (cons_0 x_3 nil_0))
			(= y_3 nil_0))
		(insert_0 x_28 x_3 y_3))))
(declare-fun isort_0 (list_0 list_0) Bool)
(assert (forall ((x_4 list_0) (y_4 Nat_0) (xs_2 list_0) (x_29 list_0) (x_30 list_0) (x_31 list_0))
	(=>	(and (= x_29 x_31)
			(isort_0 x_30 xs_2)
			(insert_0 x_31 y_4 x_30)
			(= x_4 (cons_0 y_4 xs_2)))
		(isort_0 x_29 x_4))))
(assert (forall ((x_4 list_0) (x_32 list_0))
	(=>	(and (= x_32 nil_0)
			(= x_4 nil_0))
		(isort_0 x_32 x_4))))
(declare-fun drop_0 (list_0 Nat_0 list_0) Bool)
(assert (forall ((x_5 Nat_0) (y_5 list_0) (x_33 list_0))
	(=>	(and (= x_33 y_5)
			(le_0 x_5 Z_0))
		(drop_0 x_33 x_5 y_5))))
(assert (forall ((x_5 Nat_0) (y_5 list_0) (z_2 Nat_0) (xs_3 list_0) (x_34 list_0) (x_35 list_0) (x_67 Nat_0))
	(=>	(and (= x_34 x_35)
			(drop_0 x_35 x_67 xs_3)
			(gt_0 x_5 Z_0)
			(= y_5 (cons_0 z_2 xs_3))
			(minus_0 x_67 x_5 (S_0 Z_0)))
		(drop_0 x_34 x_5 y_5))))
(assert (forall ((x_5 Nat_0) (y_5 list_0) (x_36 list_0))
	(=>	(and (= x_36 y_5)
			(le_0 x_5 Z_0))
		(drop_0 x_36 x_5 y_5))))
(assert (forall ((x_5 Nat_0) (y_5 list_0) (x_37 list_0))
	(=>	(and (= x_37 nil_0)
			(gt_0 x_5 Z_0)
			(= y_5 nil_0))
		(drop_0 x_37 x_5 y_5))))
(declare-fun splitAt_0 (pair_0 Nat_0 list_0) Bool)
(assert (forall ((x_6 Nat_0) (y_6 list_0) (x_38 pair_0) (x_39 list_0) (x_40 list_0))
	(=>	(and (= x_38 (pair_1 x_39 x_40))
			(take_0 x_39 x_6 y_6)
			(drop_0 x_40 x_6 y_6))
		(splitAt_0 x_38 x_6 y_6))))
(declare-fun x_7 (list_0 list_0 list_0) Bool)
(assert (forall ((x_8 list_0) (y_7 list_0) (z_3 Nat_0) (xs_4 list_0) (x_41 list_0) (x_42 list_0))
	(=>	(and (= x_41 (cons_0 z_3 x_42))
			(x_7 x_42 xs_4 y_7)
			(= x_8 (cons_0 z_3 xs_4)))
		(x_7 x_41 x_8 y_7))))
(assert (forall ((x_8 list_0) (y_7 list_0) (x_43 list_0))
	(=>	(and (= x_43 y_7)
			(= x_8 nil_0))
		(x_7 x_43 x_8 y_7))))
(declare-fun stoogesort_0 (list_0 list_0) Bool)
(declare-fun stoogesort_1 (list_0 list_0) Bool)
(declare-fun stoogesort_2 (list_0 list_0) Bool)
(assert (forall ((x_9 list_0) (ys_0 list_0) (zs_0 list_0) (x_46 list_0) (x_47 list_0) (x_48 list_0) (x_44 Nat_0) (x_45 pair_0) (x_68 Nat_0) (x_69 Nat_0) (x_70 Nat_0))
	(=>	(and (= x_46 x_48)
			(stoogesort_1 x_47 ys_0)
			(x_7 x_48 x_47 zs_0)
			(= x_45 (pair_1 ys_0 zs_0))
			(length_0 x_44 x_9)
			(splitAt_0 x_45 x_70 x_9)
			(mult_0 x_68 (S_0 (S_0 Z_0)) x_44)
			(add_0 x_69 x_68 (S_0 Z_0))
			(div_0 x_70 x_69 (S_0 (S_0 (S_0 Z_0)))))
		(stoogesort_0 x_46 x_9))))
(assert (forall ((x_10 list_0) (y_8 Nat_0) (z_4 list_0) (y_9 Nat_0) (x_11 list_0) (x_12 Nat_0) (x_13 list_0) (x_49 list_0) (x_50 list_0) (x_51 list_0) (x_52 list_0))
	(=>	(and (= x_49 x_52)
			(stoogesort_0 x_50 (cons_0 y_8 (cons_0 y_9 (cons_0 x_12 x_13))))
			(stoogesort_2 x_51 x_50)
			(stoogesort_0 x_52 x_51)
			(= x_10 (cons_0 y_8 z_4))
			(= z_4 (cons_0 y_9 x_11))
			(= x_11 (cons_0 x_12 x_13)))
		(stoogesort_1 x_49 x_10))))
(assert (forall ((x_10 list_0) (y_8 Nat_0) (z_4 list_0) (y_9 Nat_0) (x_11 list_0) (x_53 list_0) (x_54 list_0))
	(=>	(and (= x_53 x_54)
			(sort_0 x_54 y_8 y_9)
			(= x_10 (cons_0 y_8 z_4))
			(= z_4 (cons_0 y_9 x_11))
			(= x_11 nil_0))
		(stoogesort_1 x_53 x_10))))
(assert (forall ((x_10 list_0) (y_8 Nat_0) (z_4 list_0) (x_55 list_0))
	(=>	(and (= x_55 (cons_0 y_8 nil_0))
			(= x_10 (cons_0 y_8 z_4))
			(= z_4 nil_0))
		(stoogesort_1 x_55 x_10))))
(assert (forall ((x_10 list_0) (x_56 list_0))
	(=>	(and (= x_56 nil_0)
			(= x_10 nil_0))
		(stoogesort_1 x_56 x_10))))
(assert (forall ((x_14 list_0) (ys_1 list_0) (zs_1 list_0) (x_59 list_0) (x_60 list_0) (x_61 list_0) (x_57 Nat_0) (x_58 pair_0) (x_71 Nat_0))
	(=>	(and (= x_59 x_61)
			(stoogesort_1 x_60 zs_1)
			(x_7 x_61 ys_1 x_60)
			(= x_58 (pair_1 ys_1 zs_1))
			(length_0 x_57 x_14)
			(splitAt_0 x_58 x_71 x_14)
			(div_0 x_71 x_57 (S_0 (S_0 (S_0 Z_0)))))
		(stoogesort_2 x_59 x_14))))
(assert (forall ((xs_5 list_0) (x_62 list_0) (x_63 list_0))
	(=>	(and (diseqlist_0 x_62 x_63)
			(stoogesort_1 x_62 xs_5)
			(isort_0 x_63 xs_5))
		false)))
(check-sat)
